165116
10,91,87,78,55,21,90,81,32,7,24,48,66,17,40,79,97,98,49,80,31,0,82,51,5,16,30,61,73,33,101,2,13,89,77,41,59,45,12,100,22,56,-1,85,26,25,8,42,57,64,74,72,47,35,37,71,46,83,68,92,76,1,99,36,102,65,39,9,93,52,69,34,103,94,58,70,43,23,60,20,84,44,75,4,38,54,18,14,62,88,15,19,67,86,11,29,63,50,3,53,27,28,96,104,95,6,10
